# Objective value = 2.9573489862531920e+02
x[0] 1
x[1] 1
x[2] 1
x[3] 0
x[4] 0
x[5] 0
x[6] 1
x[7] 0
x[8] 0
x[9] 1
x[10] 0
x[11] 0
x[12] 0
x[13] 1
x[14] 1
x[15] 1
x[16] 1
x[17] 0
x[18] 0
x[19] 1
x[20] 1
x[21] 0
x[22] 0
x[23] 0
x[24] 0
x[25] 0
x[26] 1
x[27] 1
x[28] 1
x[29] 0
x[30] 1
x[31] 1
x[32] 1
x[33] 0
x[34] 1
x[35] 0
x[36] 1
x[37] 0
x[38] 0
x[39] 1
x[40] 1
x[41] 0
x[42] 1
x[43] 1
x[44] 1
x[45] 1
x[46] 0
x[47] 1
x[48] 0
x[49] 0
x[50] 0
x[51] 0
x[52] 1
x[53] 0
x[54] 1
x[55] 1
x[56] 0
x[57] 1
x[58] 1
x[59] 1
x[60] 0
x[61] 1
x[62] 0
x[63] 0
x[64] 1
x[65] 0
x[66] 0
x[67] 1
x[68] 0
x[69] 0
x[70] 1
x[71] 1
x[72] 1
x[73] 9.9999964788121731e-01
x[74] 0
x[75] 0
x[76] 0
x[77] 0
x[78] 0
x[79] 0
x[80] 0
x[81] 0
x[82] 1
x[83] 1
x[84] 1
x[85] 1
x[86] 0
x[87] 1
x[88] -1.7361782794591514e-07
x[89] 1
x[90] 0
x[91] 1
x[92] 0
x[93] 0
x[94] 0
x[95] 0
x[96] 1
x[97] 1
x[98] 1
x[99] 0
x[100] 0
x[101] 0
x[102] 0
x[103] 1
x[104] 1.0000001698849497e+00
x[105] 1
x[106] 1
x[107] 0
x[108] 0
x[109] 1
x[110] 1
x[111] 1
x[112] 1
x[113] 1
x[114] 1
x[115] 0
x[116] 1
x[117] 0
x[118] 1
x[119] 0
x[120] 0
x[121] 0
x[122] 0
x[123] 1
x[124] 0
x[125] 0
x[126] 0
x[127] 0
x[128] 0
x[129] 0
x[130] 0
x[131] 0
x[132] 1
x[133] 0
x[134] 0
x[135] 1
x[136] 0
x[137] 0
x[138] 0
x[139] 1
x[140] 1
x[141] 0
x[142] 0
x[143] 0
x[144] 1
x[145] 0
x[146] 1
x[147] 1
x[148] 1
x[149] 0
x[150] 0
x[151] 0
x[152] 1
x[153] 1.0000003537355804e+00
x[154] 1
x[155] 1
x[156] 0
x[157] 1
x[158] 1
x[159] 0
x[160] -3.5390232255849696e-07
x[161] 0
x[162] 1
x[163] 1
x[164] 1
x[165] 0
x[166] 1
x[167] 1
x[168] 1
x[169] 0
x[170] 1
x[171] 1
x[172] 0
x[173] 1
x[174] 1
x[175] 1
x[176] 1
x[177] 1
x[178] 1
x[179] 1
x[180] 0
x[181] 0
x[182] 0
x[183] 0
x[184] 1
x[185] 1
x[186] 0
x[187] 0
x[188] 0
x[189] 1
x[190] 1
x[191] 0
x[192] 0
x[193] 1
x[194] 0
x[195] 1
x[196] 1
x[197] 1
x[198] 0
x[199] 0
x[200] 0
x[201] 1
x[202] 1
x[203] 1
x[204] 0
x[205] 0
x[206] 0
x[207] 0
x[208] 0
x[209] 1
x[210] 0
x[211] 0
x[212] 1
x[213] 0
x[214] 0
x[215] 0
x[216] 1
x[217] 1
x[218] 1
x[219] 1
x[220] 0
x[221] 0
x[222] 0
x[223] 1
x[224] 0
x[225] 0
x[226] 0
x[227] 1
x[228] 0
x[229] 0
x[230] 1
x[231] 1
x[232] 0
x[233] 0
x[234] 1
x[235] 1.0000001766005644e+00
x[236] 1
x[237] 0
x[238] 0
x[239] 0
x[240] 1
x[241] 1
x[242] 0
x[243] 1
x[244] 1
x[245] 0
x[246] 0
x[247] 1
x[248] 1
x[249] 1
x[250] 0
x[251] 0
x[252] 0
x[253] 0
x[254] 1
x[255] 1
x[256] 1
x[257] 0
x[258] 1
x[259] 9.9999986728662926e-01
x[260] 0
x[261] 0
x[262] 0
x[263] 0
x[264] 0
x[265] 1
x[266] 1
x[267] 0
x[268] 0
x[269] 1
x[270] 0
x[271] 0
x[272] 1
x[273] 1
x[274] 0
x[275] 1
x[276] 1
x[277] 1
x[278] 0
x[279] 0
x[280] 0
x[281] 0
x[282] 0
x[283] 0
x[284] 1
x[285] 0
x[286] 1
x[287] 0
x[288] 0
x[289] 1
x[290] 0
x[291] 0
x[292] 1
x[293] 1
x[294] 1
x[295] 0
x[296] 0
x[297] 0
x[298] 0
x[299] 0
x[300] 1
x[301] 0
x[302] 1
x[303] 0
x[304] 1
x[305] 1
x[306] 0
x[307] 1
x[308] 1
x[309] 0
x[310] 1
x[311] 1
x[312] 0
x[313] 1
x[314] 1
x[315] 1
x[316] 0
x[317] 0
x[318] 1
x[319] 1
x[320] 0
x[321] 0
x[322] 0
x[323] 0
x[324] 0
x[325] 0
x[326] 0
x[327] 0
x[328] 0
x[329] 0
x[330] -1.7361782791938046e-07
x[331] 0
x[332] 0
x[333] 1
x[334] 0
x[335] 1
x[336] 0
x[337] 0
x[338] 1
x[339] 0
x[340] 0
x[341] 0
x[342] 1
x[343] 1
x[344] 1
x[345] 1
x[346] 0
x[347] 0
x[348] 1
x[349] 1
x[350] 1
x[351] 1
x[352] 0
x[353] 1
x[354] 1
x[355] 0
x[356] 0
x[357] 1
x[358] 0
x[359] 0
x[360] 0
x[361] 0
x[362] 1
x[363] 9.9999982638217222e-01
x[364] 1
x[365] 1
x[366] 1
x[367] 0
x[368] 0
x[369] 0
x[370] 0
x[371] 0
x[372] 0
x[373] 1
x[374] 1
x[375] 9.9999982638217222e-01
x[376] 0
x[377] 0
x[378] 1
x[379] 0
x[380] 1
x[381] 0
x[382] 1
x[383] 1
x[384] -3.5056898922516363e-07
x[385] 0
x[386] 1
x[387] 0
x[388] 1
x[389] 1
x[390] 1
x[391] 0
x[392] 0
x[393] 1
x[394] 0
x[395] 0
x[396] 0
x[397] -3.5056898922516363e-07
x[398] 0
x[399] 1
x[400] 0
x[401] 0
x[402] 0
x[403] 0
x[404] 0
x[405] 0
x[406] 1
x[407] 1.0000003536301054e+00
x[408] 1
x[409] 0
x[410] 1
x[411] 0
x[412] -3.5056898922516363e-07
x[413] 1
x[414] 1
x[415] 0
x[416] 1.0000003535324256e+00
x[417] 1
x[418] 1
x[419] 0
x[420] 0
x[421] 1
x[422] 0
x[423] 1
x[424] 0
x[425] 0
x[426] 0
x[427] 1.7665217008457510e-07
x[428] 1
x[429] 9.9999987015073932e-01
x[430] 0
x[431] 0
x[432] 2.6284126975959415e-07
x[433] 1
x[434] 0
x[435] 0
x[436] 1
x[437] 0
x[438] 1
x[439] 0
x[440] 0
x[441] 1
x[442] 1
x[443] 0
x[444] 0
x[445] 0
x[446] 0
x[447] 1
x[448] 0
x[449] 0
x[450] 1
x[451] 1
x[452] 1
x[453] 1
x[454] 0
x[455] 0
x[456] 1
x[457] 0
x[458] 0
x[459] 0
x[460] 0
x[461] 0
x[462] 0
x[463] 0
x[464] 1
x[465] 1
x[466] 1
x[467] 0
x[468] 1
x[469] 1
x[470] 1
x[471] 0
x[472] 0
x[473] 0
x[474] 0
x[475] 1
x[476] 0
x[477] 1
x[478] 1
x[479] 1
x[480] 1
x[481] 1
x[482] 0
x[483] 1
x[484] 1
x[485] 1
x[486] 1
x[487] 0
x[488] 0
x[489] 0
x[490] 0
x[491] 0
x[492] 0
x[493] 0
x[494] 0
x[495] 1
x[496] 1
x[497] 1
x[498] 0
x[499] 0
x[500] 1
x[501] 1
x[502] 0
x[503] 1
x[504] 0
x[505] 1
x[506] 1.0000003536080797e+00
x[507] 0
x[508] 0
x[509] 0
x[510] 1
x[511] 1
x[512] 0
x[513] 1
x[514] 0
x[515] 0
x[516] 0
x[517] 1
x[518] 1
x[519] 1
x[520] 1
x[521] 0
x[522] 0
x[523] 1
x[524] 1
x[525] 1
x[526] 1
x[527] 1
x[528] 0
x[529] 1
x[530] 1
x[531] 1
x[532] 1
x[533] 0
x[534] 0
x[535] 1
x[536] 0
x[537] 0
x[538] 0
x[539] 1
x[540] 0
x[541] 0
x[542] 1
x[543] 1
x[544] 1
x[545] 1
x[546] 0
x[547] 1
x[548] 1
x[549] 0
x[550] 1
x[551] 1
x[552] 0
x[553] 1
x[554] 1
x[555] 1
x[556] 0
x[557] 1
x[558] 0
x[559] 1
x[560] 1
x[561] 1
x[562] 0
x[563] 1
x[564] 0
x[565] 1
x[566] 0
x[567] 1
x[568] 1
x[569] 1
x[570] 1
x[571] 1
x[572] 1
x[573] 0
x[574] 0
x[575] 0
x[576] 0
x[577] 0
x[578] 1
x[579] -1.7695116127924848e-07
x[580] 0
x[581] 1
x[582] 1
x[583] 1
x[584] 0
x[585] 1
x[586] 1
x[587] 1
x[588] 1
x[589] 1.7676036419052611e-07
x[590] 0
x[591] 1
x[592] 1
x[593] 1
x[594] 1
x[595] 1
x[596] 0
x[597] 0
x[598] 0
x[599] 1
x[600] 0
x[601] 0
x[602] 0
x[603] 1
x[604] 1
x[605] 0
x[606] 1
x[607] 1
x[608] 0
x[609] -3.5390232282035482e-07
x[610] 0
x[611] 1
x[612] 1
x[613] 1
x[614] 0
x[615] 1
x[616] 0
x[617] 1
x[618] 0
x[619] 0
x[620] 1
x[621] 1
x[622] 0
x[623] 1
x[624] 1
x[625] 1
x[626] 0
x[627] 0
x[628] 1
x[629] 0
x[630] 0
x[631] 0
x[632] 0
x[633] 0
x[634] 0
x[635] 1
x[636] 0
x[637] 1
x[638] 1
x[639] 0
x[640] 0
x[641] 0
x[642] 1
x[643] 1
x[644] 0
x[645] 0
x[646] 1
x[647] 0
x[648] 0
x[649] 1
x[650] -3.5390232255849696e-07
x[651] 1
x[652] 0
x[653] 0
x[654] 0
x[655] 1
x[656] 1
x[657] 0
x[658] 0
x[659] 1
x[660] 1
x[661] 0
x[662] 1
x[663] 1
x[664] 0
x[665] 0
x[666] 1
x[667] 0
x[668] 1
x[669] 0
x[670] 0
x[671] 0
x[672] 0
x[673] 1
x[674] 0
x[675] 1
x[676] 1
x[677] 0
x[678] 1
x[679] 0
x[680] 1
x[681] 1
x[682] 0
x[683] 1.7677416316135364e-07
x[684] 0
x[685] 0
x[686] 1
x[687] 0
x[688] 0
x[689] 0
x[690] 1
x[691] 1
x[692] 1
x[693] 0
x[694] 1.7662431758230883e-07
x[695] 1
x[696] 1
x[697] 0
x[698] 0
x[699] 1
x[700] 0
x[701] 1
x[702] 1
x[703] 1
x[704] 0
x[705] 0
x[706] 1.0000003537318563e+00
x[707] 1
x[708] 1
x[709] 1
x[710] 1
x[711] 1.0000003537419786e+00
x[712] 1.3254653073619587e-07
x[713] 1
x[714] 0
x[715] 0
x[716] 1
x[717] 1
x[718] 0
x[719] 1
x[720] 1
x[721] 0
x[722] 1
x[723] 1
x[724] 1
x[725] 0
x[726] 0
x[727] 0
x[728] 0
x[729] 0
x[730] 1
x[731] 1
x[732] 0
x[733] 1
x[734] 0
x[735] 0
x[736] 0
x[737] 9.9999982804883880e-01
x[738] 1
x[739] 1
x[740] 1
x[741] -3.5056898922516363e-07
x[742] 1
x[743] 1
x[744] 0
x[745] 0
x[746] 0
x[747] 0
x[748] 1
x[749] 0
x[750] 0
x[751] 1
x[752] 0
x[753] 0
x[754] 1
x[755] 1.0917560817904648e-07
x[756] 0
x[757] 1.0000001763968311e+00
x[758] 1.0000001767723028e+00
x[759] 1
x[760] 9.9999986728662915e-01
x[761] 0
x[762] 0
x[763] 1
x[764] 0
x[765] 1
x[766] 0
x[767] 0
x[768] 0
x[769] 1
x[770] 0
x[771] 0
x[772] 0
x[773] 1
x[774] -1.7695116127924848e-07
x[775] 1
x[776] 1
x[777] 0
x[778] 1
x[779] 1.0000001767422149e+00
x[780] 1
x[781] 0
x[782] 1
x[783] 0
x[784] 1.97706865697778e-07
x[785] 1
x[786] 0
x[787] 1
x[788] 1
x[789] 1
x[790] 1
x[791] 0
x[792] 9.9999989034966585e-01
x[793] 1
x[794] 1
x[795] 0
x[796] 1
x[797] 0
x[798] 0
x[799] 0
x[800] 0
x[801] 0
x[802] 0
x[803] 1
x[804] 1
x[805] 0
x[806] 0
x[807] 1
x[808] 1
x[809] 0
x[810] 1
x[811] 1
x[812] 1
x[813] 0
x[814] 0
x[815] 1
x[816] 1
x[817] 1
x[818] 0
x[819] 0
x[820] 0
x[821] 0
x[822] 1
x[823] 1
x[824] 1
x[825] 0
x[826] -3.5040224709439506e-07
x[827] 0
x[828] 1
x[829] 1
x[830] 1.0000003534455739e+00
x[831] 0
x[832] 1
x[833] 0
x[834] 1
x[835] 0
x[836] 1
x[837] 0
x[838] 1
x[839] 0
x[840] 1
x[841] -3.5390232255849696e-07
x[842] 1
x[843] 1
x[844] 0
x[845] 1
x[846] 1
x[847] 0
x[848] 1
x[849] 0
x[850] 0
x[851] 1
x[852] 1
x[853] 1
x[854] 1
x[855] 1
x[856] 0
x[857] 0
x[858] 0
x[859] 0
x[860] 1
x[861] 0
x[862] -1.7361782794591514e-07
x[863] 1
x[864] 0
x[865] 1.0000003530289099e+00
x[866] 0
x[867] 0
x[868] 1
x[869] 0
x[870] 1
x[871] 0
x[872] 0
x[873] 0
x[874] 1
x[875] 0
x[876] 0
x[877] 0
x[878] 1
x[879] 1
x[880] 0
x[881] 1
x[882] 0
x[883] 0
x[884] 1
x[885] 1
x[886] 1
x[887] 0
x[888] 1
x[889] 0
x[890] 0
x[891] 0
x[892] 0
x[893] 0
x[894] 1
x[895] 0
x[896] 0
x[897] 0
x[898] 1
x[899] 1
x[900] 0
x[901] 1
x[902] 0
x[903] 1
x[904] 0
x[905] 1
x[906] 1
x[907] 1
x[908] 1
x[909] 0
x[910] 1
x[911] 0
x[912] 1
x[913] 1
x[914] 1
x[915] 0
x[916] 0
x[917] 0
x[918] 0
x[919] 0
x[920] 1
x[921] 1
x[922] 1
x[923] 0
x[924] 1
x[925] 1
x[926] 1
x[927] 0
x[928] 0
x[929] 1
x[930] 0
x[931] 0
x[932] 0
x[933] 0
x[934] 0
x[935] 0
x[936] 0
x[937] 0
x[938] 1.0000001382842472e+00
x[939] 0
x[940] 1
x[941] 1
x[942] 0
x[943] 0
x[944] 0
x[945] 0
x[946] 1
x[947] 1
x[948] 0
x[949] -1.7361782794591514e-07
x[950] 0
x[951] 0
x[952] 1
x[953] 0
x[954] 1
x[955] 1
x[956] 1
x[957] 1
x[958] 1
x[959] 0
x[960] 0
x[961] 1.0000003537190971e+00
x[962] 1
x[963] 1
x[964] 0
x[965] -3.5390232255849696e-07
x[966] 0
x[967] 1
x[968] 1
x[969] 1
x[970] 1
x[971] 0
x[972] -3.5056898922516363e-07
x[973] 0
x[974] 0
x[975] 1.3235222562605207e-07
x[976] 1
x[977] 0
x[978] 1
x[979] 1
x[980] 1
x[981] 0
x[982] 1
x[983] 1
x[984] 1
x[985] 0
x[986] 0
x[987] 0
x[988] 1
x[989] 0
x[990] 0
x[991] 0
x[992] 0
x[993] 1
x[994] 1
x[995] 1
x[996] 0
x[997] 1
x[998] 1
x[999] 0
